(set-option :produce-models true)
(set-logic QF_UF)
(declare-fun p13() Bool)
(declare-fun p10() Bool)
(declare-fun p4() Bool)
(declare-fun p8() Bool)
(declare-fun p1() Bool)
(declare-fun p11() Bool)
(declare-fun p12() Bool)
(declare-fun p0() Bool)
(declare-fun p6() Bool)
(declare-fun p2() Bool)
(declare-fun p7() Bool)
(declare-fun p14() Bool)
(declare-fun p9() Bool)
(declare-fun p3() Bool)
(declare-fun p5() Bool)
(assert
(and (or p13 p10 p4) (or (not p8) p8 p1) (or p10 p10 (not p4)) (or p11 p13 (not p10)) (or (not p12) (not p0) p6) (or p0 p2 (not p7)) (or p4 (not p12) (not p13)) (or (not p4) p10 (not p14)) (or (not p8) p9 p9) (or (not p4) p4 p8) (or p13 p12 p4) (or p9 (not p7) p9) (or p2 (not p11) p2) (or (not p0) (not p3) p13) (or p0 p11 p9) (or (not p4) p5 p6) (or (not p5) p9 (not p0)) (or (not p11) p12 (not p2)) (or p10 p8 p0) (or p8 (not p2) p7) (or (not p4) (not p1) p0) (or p11 p5 (not p3)) (or p6 p13 (not p12)) (or p7 (not p9) (not p2)) (or p13 (not p14) (not p2)) (or (not p10) (not p11) p1) (or p10 (not p0) (not p2)) (or (not p11) (not p11) p13) (or p10 p9 p3) (or (not p9) p8 (not p12)) (or p1 (not p1) p4) (or (not p3) p8 (not p12)) (or (not p10) (not p7) (not p5)) (or p0 (not p6) p11) (or (not p11) (not p14) (not p7)) (or (not p3) p10 (not p13)) (or (not p3) p5 (not p2)) (or (not p14) p5 (not p4)) (or (not p13) (not p4) (not p2)) (or (not p3) p11 p4) (or (not p9) p2 p14) (or p13 p5 p11) (or p8 p8 p11) (or p7 (not p8) p0) (or p10 (not p4) p10) (or p6 p14 (not p2)) (or p14 (not p4) (not p3)) (or (not p14) (not p12) p5) (or (not p0) (not p5) (not p11)) (or p2 p4 p14) (or p8 (not p14) p13) (or p6 p7 p1) (or p11 (not p12) p7) (or p8 p12 (not p11)) (or p13 p11 p6) (or p3 (not p11) (not p12)) (or (not p6) p12 (not p7)) (or p3 (not p10) (not p9)) (or p13 (not p12) p3) (or p3 (not p8) p5) (or (not p0) (not p10) (not p7)) (or p2 p13 p10) (or p12 (not p7) (not p1)) (or p6 (not p5) (not p0)) (or (not p10) p5 p1) (or (not p5) (not p9) p12) (or p12 p6 p13) (or (not p3) p11 (not p14)) (or (not p13) (not p9) (not p2)))
)
(check-sat)
(get-model)
